SCIP version 5.0.0 [precision: 8 byte] [memory: block] [mode: optimized] [LP solver: NONE] [GitHash: 3bbd232]
Copyright (C) 2002-2017 Konrad-Zuse-Zentrum fuer Informationstechnik Berlin (ZIB)

External codes: 
  Readline EditLine w  GNU library for command line editing (gnu.org/s/readline)
  CppAD 20160000.1     Algorithmic Differentiation of C++ algorithms developed by B. Bell (www.coin-or.org/CppAD)
  ZLIB 1.2.5           General purpose compression library by J. Gailly and M. Adler (zlib.net)
  GMP 6.1.2            GNU Multiple Precision Arithmetic Library developed by T. Granlund (gmplib.org)

user parameter file <scip.set> not found - using default parameters

read problem <../../Split_data/output/breast/3/0_sample_breast.logreg>
============

File name	:	../../Split_data/output/breast/3/0_sample_breast.logreg
Problem name 	:	0_sample_breast
Number of data	:	155
Number of var	:	33
The given data has linear independence

[dim=1] time: 0.003598
[dim=2] time: 0.007601
[dim=3] time: 0.013167
[dim=4] time: 0.017319
[dim=5] Time of forward = 0.021111sec.
AIC: 145.197
k: 4

[dim=33] time: 0.014548
[dim=32] time: 0.057174
[dim=31] time: 0.079263
[dim=30] time: 0.095234
[dim=29] time: 0.104829
[dim=28] time: 0.116817
[dim=27] time: 0.12793
[dim=26] time: 0.135866
[dim=25] time: 0.144214
[dim=24] Time of backward = 0.150081sec.
AIC: 109.376
k: 25
